n = 20;
lu = [|170, 272
      |-254, 399
      |-245, 137
      |-327, 206
      |-279, 165
      |180, 213
      |-47, 293
      |-308, 391
      |14, 367
      |-45, 192
      |-157, 363
      |-332, 209
      |-274, 275
      |-156, -139
      |-107, 34
      |315, 340
      |-147, 316
      |-345, -323
      |132, 240
      |256, 394|];
